1656658800
1656669600
1656673200
1656680400
1657004400
1657022400
1657090800
1657108800
1657177200
1657195200
1657263600
1657274400
1657278000
1657285200
1657522800
1657540800
1657609200
1657627200
1657695600
1657713600
1657782000
1657800000
1657868400
1657878300
1657881900
1657890000
1658127600
1658145600
1658214000
1658232000
1658300400
1658318400
1658386800
1658404800
1658473200
1658483100
1658486700
1658491200
1658491200
1658491200
1658491200
1658494800
